100	22	4	57	
16	15	16	14

0	0	0	0	0	0	4	1	2	3	4
1	10	7	9	9	6	1	8
2	10	3	2	8	9	1	9
3	8	3	4	7	5	1	5
4	6	1	8	2	9	1	6
5	5	5	6	6	3	1	7
6	6	5	10	8	8	1	10
7	3	7	4	8	3	1	12
8	5	9	10	4	4	2	9	13
9	9	10	5	2	8	1	15
10	7	5	4	3	5	1	11
11	9	10	6	6	3	1	18
12	6	8	10	3	6	1	14
13	9	2	3	5	2	1	19
14	7	5	2	1	5	1	16
15	9	1	9	8	3	1	17
16	5	5	8	4	2	1	20
17	8	6	1	1	4	1	21
18	9	1	2	9	6	1	21
19	9	8	10	8	4	1	21
20	8	4	10	7	5	1	21
21	0	0	0	0	0	0
